unsat
(:max-memory          18.11
 :memory              17.93
 :nlsat-conflicts     4
 :nlsat-learned-added 3
 :nlsat-propagations  13
 :nlsat-stages        4
 :num-allocs          6585
 :rlimit-count        5865
 :time                0.00
 :total-time          0.01)
